%%% static parameters %%%
timespan = 1;
Fact = [1];
Distr1 = [15];
Distr2 = [20];
Clients_N = [100];
Demand_W = [15];
Lt0 = [4];
Lt1 = [4];
SS_ = [0.85];
DS_D = [20];
K = [200];
MA = [500];
%%% dynamic parameters %%%
lost_ratio_sales_ret_th = 0.0026092358615258417;
lost_ratio_sales_ret_w = 51;
lost_ratio_sales_dis_th = 0.008143368390270925;
lost_ratio_sales_dis_w = 57;
lost_ratio_sales_fac_th = 0.002311710595624237;
lost_ratio_sales_fac_w = 20;
stock_customer_MA_mean_relative_th = 0.141633913466499;
stock_customer_MA_mean_relative_w = 64;
stock_distributor_MA_mean_relative_th = 0.13690991112007123;
stock_distributor_MA_mean_relative_w = 46;
stock_retailer_MA_mean_relative_th = 0.7974327354985136;
stock_retailer_MA_mean_relative_w = 38;
stock_factory_MA_mean_relative_th = 0.5095919611359131;
stock_factory_MA_mean_relative_w = 19;
